100
32
14
22
17
21
12
18
13
12
3
6
5
14
9
26
10
25
10
6
2
20
2
3
3
19
2
1
2
3
4
1
1
2
4
17
1
1
4
1
6
17
1
1
5
17
4
2
1
1
1
1
1
1
3
1
2
4
3
3
1
1
21
16
1
3
1
7
1
1
4
3
18
3
1
5
2
1
2
1
1
2
1
17
2
3
2
1
1
3
1
5
1
1
3
1
2
1
5
1
17
1